(set-logic ALL)
(declare-const BAV1 Bool)
(declare-const BAV2 Bool)
(declare-const BAV3 Bool)
(declare-const GEN1 Int)
(declare-fun x () Real)
(declare-fun y () Real)
(declare-fun z () Real)
(assert (< y GEN1))
(assert (>= y x))
(assert (>= y (- x)))
(assert (= BAV1 (< y GEN1)))
(assert (= BAV2 (>= y x)))
(assert (= BAV3 (>= y (- x))))
(check-sat)
(get-model)